Maximize
  0.4 Z_00_1 + 0.3 Z_00_2 + 0.2 Z_00_3 + 0.1 Z_00_4 + 1.1 Z_01_1 + Z_01_2
   + 0.9 Z_01_3 + 0.8 Z_01_4 + 1.75 Z_02_1 + 1.65 Z_02_2 + 1.55 Z_02_3
   + 1.45 Z_02_4 + 2.65 Z_03_1 + 2.55 Z_03_2 + 2.45 Z_03_3 + 2.35 Z_03_4
   + 2.7 Z_04_1 + 2.6 Z_04_2 + 2.5 Z_04_3 + 2.4 Z_04_4 + 0.1 Z_10_1
   + 0.2 Z_10_2 + 0.4 Z_10_3 + 0.3 Z_10_4 + 0.55 Z_11_1 + 0.85 Z_11_2
   + 0.75 Z_11_3 + 0.65 Z_11_4 + 1.45 Z_12_1 + 1.75 Z_12_2 + 1.65 Z_12_3
   + 1.55 Z_12_4 + 1.45 Z_13_1 + 1.55 Z_13_2 + 1.75 Z_13_3 + 1.65 Z_13_4
   + 2.8 Z_14_1 + 2.9 Z_14_2 + 3.1 Z_14_3 + 3 Z_14_4 + 0.4 Z_21_1
   + 0.5 Z_21_2 + 0.6 Z_21_3 + 0.7 Z_21_4 + 0.85 Z_22_1 + 0.95 Z_22_2
   + 1.05 Z_22_3 + 1.15 Z_22_4 + 0.5 Z_23_1 + 0.5 Z_23_2 + 0.85 Z_23_3
   + 0.75 Z_23_4 + 3.2 Z_24_1 + 3.3 Z_24_2 + 3.4 Z_24_3 + 3.5 Z_24_4
   + 1.15 Z_32_1 + 1.25 Z_32_2 + 1.35 Z_32_3 + 1.45 Z_32_4 + 1.1 Z_34_1
   + 1.1 Z_34_2 + 1.3 Z_34_3 + 1.25 Z_34_4
Subject To
 constraint1_0_0: Z_00_1 + Z_00_2 + Z_00_3 + Z_00_4 <= 1
 constraint1_1_0: Z_10_1 + Z_10_2 + Z_10_3 + Z_10_4 <= 1
 constraint1_2_0: Z_20_1 + Z_20_2 + Z_20_3 + Z_20_4 <= 1
 constraint1_3_0: Z_30_1 + Z_30_2 + Z_30_3 + Z_30_4 <= 1
 constraint1_0_1: Z_01_1 + Z_01_2 + Z_01_3 + Z_01_4 <= 1
 constraint1_1_1: Z_11_1 + Z_11_2 + Z_11_3 + Z_11_4 <= 1
 constraint1_2_1: Z_21_1 + Z_21_2 + Z_21_3 + Z_21_4 <= 1
 constraint1_3_1: Z_31_1 + Z_31_2 + Z_31_3 + Z_31_4 <= 1
 constraint1_0_2: Z_02_1 + Z_02_2 + Z_02_3 + Z_02_4 <= 1
 constraint1_1_2: Z_12_1 + Z_12_2 + Z_12_3 + Z_12_4 <= 1
 constraint1_2_2: Z_22_1 + Z_22_2 + Z_22_3 + Z_22_4 <= 1
 constraint1_3_2: Z_32_1 + Z_32_2 + Z_32_3 + Z_32_4 <= 1
 constraint1_0_3: Z_03_1 + Z_03_2 + Z_03_3 + Z_03_4 <= 1
 constraint1_1_3: Z_13_1 + Z_13_2 + Z_13_3 + Z_13_4 <= 1
 constraint1_2_3: Z_23_1 + Z_23_2 + Z_23_3 + Z_23_4 <= 1
 constraint1_3_3: Z_33_1 + Z_33_2 + Z_33_3 + Z_33_4 <= 1
 constraint1_0_4: Z_04_1 + Z_04_2 + Z_04_3 + Z_04_4 <= 1
 constraint1_1_4: Z_14_1 + Z_14_2 + Z_14_3 + Z_14_4 <= 1
 constraint1_2_4: Z_24_1 + Z_24_2 + Z_24_3 + Z_24_4 <= 1
 constraint1_3_4: Z_34_1 + Z_34_2 + Z_34_3 + Z_34_4 <= 1
 constraint2_0_1: Z_00_1 + Z_10_1 + Z_20_1 + Z_30_1 = 1
 constraint2_0_2: Z_00_2 + Z_10_2 + Z_20_2 + Z_30_2 = 1
 constraint2_0_3: Z_00_3 + Z_10_3 + Z_20_3 + Z_30_3 = 1
 constraint2_0_4: Z_00_4 + Z_10_4 + Z_20_4 + Z_30_4 = 1
 constraint2_1_1: Z_01_1 + Z_11_1 + Z_21_1 + Z_31_1 = 1
 constraint2_1_2: Z_01_2 + Z_11_2 + Z_21_2 + Z_31_2 = 1
 constraint2_1_3: Z_01_3 + Z_11_3 + Z_21_3 + Z_31_3 = 1
 constraint2_1_4: Z_01_4 + Z_11_4 + Z_21_4 + Z_31_4 = 1
 constraint2_2_1: Z_02_1 + Z_12_1 + Z_22_1 + Z_32_1 = 1
 constraint2_2_2: Z_02_2 + Z_12_2 + Z_22_2 + Z_32_2 = 1
 constraint2_2_3: Z_02_3 + Z_12_3 + Z_22_3 + Z_32_3 = 1
 constraint2_2_4: Z_02_4 + Z_12_4 + Z_22_4 + Z_32_4 = 1
 constraint2_3_1: Z_03_1 + Z_13_1 + Z_23_1 + Z_33_1 = 1
 constraint2_3_2: Z_03_2 + Z_13_2 + Z_23_2 + Z_33_2 = 1
 constraint2_3_3: Z_03_3 + Z_13_3 + Z_23_3 + Z_33_3 = 1
 constraint2_3_4: Z_03_4 + Z_13_4 + Z_23_4 + Z_33_4 = 1
 constraint2_4_1: Z_04_1 + Z_14_1 + Z_24_1 + Z_34_1 = 1
 constraint2_4_2: Z_04_2 + Z_14_2 + Z_24_2 + Z_34_2 = 1
 constraint2_4_3: Z_04_3 + Z_14_3 + Z_24_3 + Z_34_3 = 1
 constraint2_4_4: Z_04_4 + Z_14_4 + Z_24_4 + Z_34_4 = 1
Bounds
Binaries
 Z_00_1 Z_00_2 Z_00_3 Z_00_4 Z_01_1 Z_01_2 Z_01_3 Z_01_4 Z_02_1 Z_02_2
 Z_02_3 Z_02_4 Z_03_1 Z_03_2 Z_03_3 Z_03_4 Z_04_1 Z_04_2 Z_04_3 Z_04_4
 Z_10_1 Z_10_2 Z_10_3 Z_10_4 Z_11_1 Z_11_2 Z_11_3 Z_11_4 Z_12_1 Z_12_2
 Z_12_3 Z_12_4 Z_13_1 Z_13_2 Z_13_3 Z_13_4 Z_14_1 Z_14_2 Z_14_3 Z_14_4
 Z_20_1 Z_20_2 Z_20_3 Z_20_4 Z_21_1 Z_21_2 Z_21_3 Z_21_4 Z_22_1 Z_22_2
 Z_22_3 Z_22_4 Z_23_1 Z_23_2 Z_23_3 Z_23_4 Z_24_1 Z_24_2 Z_24_3 Z_24_4
 Z_30_1 Z_30_2 Z_30_3 Z_30_4 Z_31_1 Z_31_2 Z_31_3 Z_31_4 Z_32_1 Z_32_2
 Z_32_3 Z_32_4 Z_33_1 Z_33_2 Z_33_3 Z_33_4 Z_34_1 Z_34_2 Z_34_3 Z_34_4
End
